# PURPOSE:
#  uniaxial compression in Z axis
# PARAMTERS:
#  mdCompressSteps - number of steps to run for
#  mdCompressRate - compression rate as engineering strain rate

reset_timestep		0


unfix		mdTemp
unfix		mdNVE
fix		mdNPT all npt temp ${T} ${T} 1 x 0 0 1 y 0 0 1 drag 1
compute				pe all pe/atom

# Store final cell length for strain calculations
variable	tmp equal "lz"
variable	L0 equal ${tmp}
print		"Initial Length, L0: ${L0}"

variable	srate1 equal "-v_mdCompressRate / 1.0e12"
fix			2 all deform 1 z erate ${srate1} units box remap x

# Output strain and stress info to file
# for units metal, pressure is in [bars] = 100 [kPa] = 1/10000 [GPa]
# p2, p3, p4 are in GPa
variable	strain equal "(lz - v_L0)/v_L0"
variable	p1 equal "v_strain"
variable	p2 equal "-pxx/10000"
variable	p3 equal "-pyy/10000"
variable	p4 equal "-pzz/10000"

thermo 			1000
thermo_style	custom step v_strain temp v_p2 v_p3 v_p4 ke pe press
dump 			dump1 all custom 500 out.${jobName}_compress.dump id type xs ys zs c_pe
fix				def1 all print 100 "${p1} ${p2} ${p3} ${p4}" file out.${jobName}_compress.txt screen no

run		${mdCompressSteps}

