pair_style 			eam/fs
pair_coeff			* * AlFe_mm.eam.fs Fe Al
neighbor			2 bin
neigh_modify		once no every 1 delay 0 check yes

